SYSTEM       = VASP_Job
ISTART       = 0
ICHARG       = 2
PREC         = Accurate
IBRION       = -1
LWAVE        = .TRUE.
LCHARG       = .TRUE.
NCORE        = 4
ENCUT        = 520
ISMEAR       = 0
SIGMA        = 0.05
EDIFF        = 1e-08
LREAL        = Auto
