H O Si
1.0
4.0 0.0 0.0
0.0 4.0 0.0
0.0 0.0 4.0
H O Si
1 1 1
Direct
0.0 0.0 0.0
0.5 0.5 0.5
0.2 0.2 0.2
