SYSTEM       = VASP_COHP
ISTART       = 1
ICHARG       = 11
PREC         = Accurate
IBRION       = -1
NSW          = 0
ISMEAR       = 0
LORBIT       = 11
LWAVE        = .TRUE.
LCHARG       = .FALSE.
ISYM         = -1
ENCUT        = 520
SIGMA        = 0.05
EDIFF        = 1e-08
LREAL        = Auto
