SYSTEM       = VASP_Band
ISTART       = 1
ICHARG       = 11
PREC         = Accurate
IBRION       = -1
NSW          = 0
ISMEAR       = 0
SIGMA        = 0.05
LORBIT       = 11
LWAVE        = .FALSE.
LCHARG       = .FALSE.
ENCUT        = 520
EDIFF        = 1e-08
LREAL        = Auto
