K-Path Generated by VASPKIT.
   20
Line-Mode
Reciprocal
   0.0000000000   0.0000000000   0.0000000000     GAMMA          
   0.5000000000   0.0000000000   0.0000000000     L              
 
   0.5000000000   0.0000000000   0.0000000000     L              
   0.5000000000  -0.5000000000   0.5000000000     T              
 
   0.5000000000  -0.5000000000   0.5000000000     T              
   0.5000000000  -0.5000000000   0.5000000000     P_0            
 
   0.5000000000   0.5000000000   0.5000000000     P_2            
   0.0000000000   0.0000000000   0.0000000000     GAMMA          
 
   0.0000000000   0.0000000000   0.0000000000     GAMMA          
   0.5000000000  -0.5000000000   0.0000000000     F              
 
