SYSTEM       = VASP_DOS
ISTART       = 1
ICHARG       = 11
PREC         = Accurate
IBRION       = -1
NSW          = 0
ISMEAR       = 0
LORBIT       = 11
LWAVE        = .FALSE.
LCHARG       = .FALSE.
NCORE        = 4
NEDOS        = 2000
ENCUT        = 520
SIGMA        = 0.05
EDIFF        = 1e-08
LREAL        = Auto
